 
Subject name: BCN_CP2
OpenSim model: C:\GBW_MyPrograms\PredSim_2D_BCN\PredSim\Subjects\BCN_CP2\BCN_CP2.osim
 
 
Start PreProcessing...
 
   Using existing external function: 
      C:\GBW_MyPrograms\PredSim_2D_BCN\PredSim\Subjects\BCN_CP2\F_BCN_CP2.dll
   using existing musculoskeletal geometry BCN_CP2_f_lMT_vMT_dM_poly_3_9
 
...PreProcessing done. Time elapsed 2.47 s
 
 
Start creating CasADi functions...
 
 
...CasADi functions created. Time elapsed 0.90 s
 
 
Start formulating OCP...
 
...OCP formulation done. Time elapsed 1.47 s
 
Starting NLP solver...
 

******************************************************************************
This program contains Ipopt, a library for large-scale nonlinear optimization.
 Ipopt is released as open source code under the Eclipse Public License (EPL).
         For more information visit https://github.com/coin-or/Ipopt
******************************************************************************

This is Ipopt version 3.14.11, running with linear solver MUMPS 5.4.1.

Number of nonzeros in equality constraint Jacobian...:   230810
Number of nonzeros in inequality constraint Jacobian.:    21600
Number of nonzeros in Lagrangian Hessian.............:        0

Total number of variables............................:    33157
                     variables with only lower bounds:        0
                variables with lower and upper bounds:    33157
                     variables with only upper bounds:        0
Total number of equality constraints.................:    31257
Total number of inequality constraints...............:    10800
        inequality constraints with only lower bounds:     5400
   inequality constraints with lower and upper bounds:        0
        inequality constraints with only upper bounds:     5400

iter    objective    inf_pr   inf_du lg(mu)  ||d||  lg(rg) alpha_du alpha_pr  ls
   0  7.6096975e+03 1.34e+03 1.00e+02   0.0 0.00e+00    -  0.00e+00 0.00e+00   0
   1  7.6026654e+03 1.03e+03 7.33e+02  -0.2 1.51e+01    -  1.34e-01 1.61e-01f  1
   2  7.8289207e+03 7.12e+02 7.86e+02  -1.0 1.45e+01    -  2.70e-01 2.27e-01f  1
   3  9.1538014e+03 5.75e+02 3.39e+03   0.1 3.31e+01    -  2.26e-01 1.88e-01f  1
   4  1.3989647e+04 4.90e+02 2.43e+03   0.7 1.03e+02    -  1.28e-01 1.20e-01f  1
   5  2.5284256e+04 4.19e+02 5.35e+03   0.9 8.69e+01    -  1.47e-01 2.75e-01f  1
   6  4.3849806e+04 1.21e+02 5.13e+03   0.6 2.08e+01    -  7.40e-01 1.00e+00f  1
   7  4.0393885e+04 1.61e+03 7.88e+04   0.8 1.63e+01    -  1.00e+00 1.00e+00f  1
   8  3.9848270e+04 4.24e+02 1.49e+05   0.7 1.13e+01    -  1.58e-01 1.00e+00f  1
   9  3.8993365e+04 8.72e+01 7.55e+04   0.7 1.43e+01    -  7.02e-01 1.00e+00f  1
iter    objective    inf_pr   inf_du lg(mu)  ||d||  lg(rg) alpha_du alpha_pr  ls
  10  3.8944335e+04 3.99e+01 2.93e+04   0.3 4.45e+00    -  1.00e+00 1.00e+00h  1
  11  3.8727729e+04 1.75e+01 8.17e+03  -0.3 2.67e+00    -  1.00e+00 1.00e+00h  1
  12  3.8307212e+04 7.74e-01 7.96e+02  -1.1 2.06e+00    -  1.00e+00 1.00e+00h  1
  13  3.1892456e+04 2.42e+02 6.00e+02  -1.5 7.98e+00    -  1.00e+00 1.00e+00f  1
  14  3.1700138e+04 6.19e+01 7.31e+02  -2.1 2.50e+00    -  1.00e+00 1.00e+00h  1
  15  2.9756171e+04 2.90e+01 6.08e+02  -2.2 3.18e+00    -  1.00e+00 1.00e+00h  1
  16  2.4147546e+04 1.72e+01 1.20e+02  -1.8 1.34e+01    -  1.00e+00 6.62e-01f  1
  17  2.6856725e+04 1.05e+02 7.63e+01  -1.2 2.46e+01    -  1.00e+00 6.17e-01f  1
  18  2.4186906e+04 2.65e+01 1.04e+02  -1.3 8.72e+00    -  1.00e+00 1.00e+00h  1
  19  2.3976544e+04 1.28e+01 2.61e+01  -1.3 5.69e+00    -  1.00e+00 1.00e+00h  1
iter    objective    inf_pr   inf_du lg(mu)  ||d||  lg(rg) alpha_du alpha_pr  ls
  20  2.1764343e+04 3.22e+00 3.60e+01  -1.8 6.67e+00    -  1.00e+00 1.00e+00h  1
  21  1.9896607e+04 3.76e+02 3.76e+02  -1.6 9.65e+00    -  1.00e+00 1.00e+00f  1
  22  1.9756298e+04 9.26e+01 5.11e+02  -1.7 4.72e+00    -  1.00e+00 1.00e+00h  1
  23  1.9185262e+04 3.20e+01 1.24e+03  -1.8 6.94e+00    -  1.00e+00 1.00e+00h  1
  24  1.7335016e+04 1.99e+01 6.62e+02  -1.9 4.84e+00    -  1.00e+00 9.95e-01h  1
  25  1.3414026e+04 2.09e+02 2.96e+02  -2.9 2.03e+01    -  5.33e-01 6.22e-01f  1
  26  1.1847906e+04 6.59e+01 2.73e+02  -2.2 1.47e+01    -  6.94e-01 9.59e-01h  1
  27  9.7341078e+03 4.62e+01 8.67e+01  -2.6 1.38e+01    -  7.48e-01 1.00e+00h  1
  28  8.3489005e+03 2.43e+01 3.99e+01  -2.9 2.34e+01    -  3.44e-01 5.72e-01h  1
  29  9.0082923e+03 2.57e+01 5.50e+01  -2.6 1.48e+01    -  7.67e-01 1.00e+00H  1
iter    objective    inf_pr   inf_du lg(mu)  ||d||  lg(rg) alpha_du alpha_pr  ls
  30  6.6400018e+03 1.85e+01 3.57e+01  -2.8 1.03e+01    -  1.00e+00 1.00e+00f  1
  31  7.1472078e+03 3.43e+01 1.70e+01  -2.5 1.09e+01    -  7.23e-01 5.00e-01f  2
  32  6.5417336e+03 7.90e+00 1.94e+01  -2.7 5.59e+00    -  1.00e+00 1.00e+00h  1
  33  5.1803873e+03 1.01e+02 2.12e+01  -2.9 9.58e+00    -  1.00e+00 1.00e+00h  1
  34  6.6701884e+03 9.76e+00 3.52e+01  -2.7 9.29e+00    -  9.13e-01 1.00e+00H  1
  35  5.4853894e+03 1.21e+01 1.78e+01  -2.8 1.40e+01    -  1.00e+00 1.00e+00f  1
  36  4.7390847e+03 7.67e+00 1.64e+01  -2.9 4.89e+00    -  1.00e+00 9.86e-01h  1
  37  4.4615062e+03 4.15e+00 1.06e+01  -2.9 3.77e+00    -  1.00e+00 1.00e+00h  1
  38  3.5159882e+03 1.09e+01 2.60e+01  -3.2 6.09e+00    -  1.00e+00 1.00e+00h  1
  39  3.2660202e+03 1.00e+01 3.71e+01  -3.2 2.02e+01    -  2.79e-01 2.92e-01h  1
iter    objective    inf_pr   inf_du lg(mu)  ||d||  lg(rg) alpha_du alpha_pr  ls
  40  3.9572188e+03 7.40e+00 3.15e+01  -2.7 2.29e+01    -  1.87e-01 3.29e-01f  1
  41  3.7436417e+03 7.42e+00 3.00e+01  -3.2 1.51e+01    -  1.88e-01 2.67e-01h  2
  42  3.2123573e+03 5.77e+00 1.20e+01  -3.2 5.59e+00    -  1.00e+00 1.00e+00h  1
  43  3.1117538e+03 4.17e+00 1.13e+01  -3.2 5.64e+00    -  1.00e+00 4.74e-01h  2
  44  3.1301645e+03 1.27e+00 3.12e+00  -3.2 2.88e+00    -  7.92e-01 1.00e+00h  1
  45  2.8460645e+03 7.87e-01 1.18e+01  -3.3 2.51e+00    -  1.00e+00 1.00e+00h  1
  46  2.7277845e+03 6.33e+00 1.73e+01  -3.3 1.49e+01    -  4.13e-01 4.03e-01h  1
  47  3.5169172e+03 6.23e+00 1.62e+01  -3.0 1.08e+01    -  3.22e-01 5.55e-01f  1
  48  3.1564999e+03 1.19e+01 1.10e+01  -3.3 1.51e+01    -  2.25e-01 4.06e-01h  1
  49  2.9603872e+03 6.79e+00 3.80e+00  -3.3 1.31e+01    -  2.73e-02 4.23e-01h  1
iter    objective    inf_pr   inf_du lg(mu)  ||d||  lg(rg) alpha_du alpha_pr  ls
  50  2.7735324e+03 2.37e+00 3.55e+00  -3.3 1.06e+01    -  4.48e-02 6.63e-01h  1
  51  2.7488457e+03 1.71e+00 2.50e+00  -3.3 2.54e+01    -  4.63e-03 2.91e-01f  1
  52  2.7113257e+03 1.34e-01 3.89e+00  -3.3 7.26e+00    -  1.88e-01 1.00e+00h  1
  53  3.8614488e+03 9.46e+00 9.02e+00  -2.6 2.76e+01    -  2.21e-01 2.84e-01f  1
  54  3.8912311e+03 7.72e+00 1.10e+01  -3.0 8.93e+00    -  6.89e-01 7.53e-01h  1
  55  3.2301819e+03 2.13e+00 3.14e+00  -3.0 7.43e+00    -  8.62e-02 1.00e+00f  1
  56  3.3566864e+03 6.97e-01 3.27e+00  -3.0 5.81e+00    -  1.00e+00 1.00e+00H  1
  57  3.2844134e+03 1.16e+00 9.47e-01  -3.0 4.12e+00    -  6.19e-01 1.00e+00h  1
  58  3.2743853e+03 4.13e-01 6.40e-01  -3.0 1.07e+00    -  1.00e+00 1.00e+00h  1
  59  3.2774775e+03 2.64e-02 1.41e-01  -3.0 6.04e-01    -  1.00e+00 1.00e+00h  1
iter    objective    inf_pr   inf_du lg(mu)  ||d||  lg(rg) alpha_du alpha_pr  ls
  60  2.9890734e+03 6.78e-01 2.48e+00  -3.5 2.52e+00    -  9.94e-01 1.00e+00f  1
  61  3.7967502e+03 6.07e+00 7.13e+00  -3.0 6.75e+00    -  1.00e+00 8.22e-01f  1
  62  3.4117084e+03 4.25e+00 3.42e+00  -3.1 1.01e+01    -  4.82e-01 7.16e-01h  1
  63  3.1747087e+03 2.65e+01 3.13e+00  -3.1 5.58e+00    -  1.80e-01 6.95e-01h  1
  64  3.1674789e+03 1.76e+01 2.30e+00  -3.1 1.45e+01    -  1.47e-02 3.43e-01h  1
  65  3.1724266e+03 9.40e+00 3.43e+00  -3.1 1.50e+01    -  3.34e-02 4.79e-01h  1
  66  3.1547801e+03 3.54e+00 3.57e+00  -3.1 5.84e+00    -  1.00e+00 1.00e+00h  1
  67  2.6028792e+03 1.64e+00 4.93e+00  -3.3 4.44e+00    -  1.00e+00 9.74e-01h  1
  68  3.4692973e+03 1.33e+01 5.97e+00  -3.1 6.71e+00    -  7.06e-01 1.00e+00h  1
  69  2.9541577e+03 5.88e+00 4.28e+00  -3.2 7.70e+00    -  6.65e-01 7.97e-01h  1
iter    objective    inf_pr   inf_du lg(mu)  ||d||  lg(rg) alpha_du alpha_pr  ls
  70  2.7916149e+03 5.68e+00 2.25e+00  -3.2 1.16e+01    -  4.59e-02 4.71e-01h  1
  71  2.7430173e+03 2.92e-01 1.45e+00  -3.2 5.65e+00    -  5.20e-01 1.00e+00h  1
  72  2.7329694e+03 6.88e-01 1.02e+00  -3.2 1.74e+00    -  1.00e+00 1.00e+00h  1
  73  2.7389258e+03 6.23e-02 2.65e-01  -3.2 7.09e-01    -  1.00e+00 1.00e+00h  1
  74  2.4160869e+03 9.35e-01 1.15e+01  -3.6 2.92e+00    -  1.00e+00 9.95e-01f  1
  75  2.5160061e+03 1.14e+01 1.14e+01  -3.3 8.44e+00    -  7.67e-01 5.56e-01h  1
  76  2.3718668e+03 9.43e+00 7.32e+00  -3.4 5.73e+00    -  4.21e-01 9.33e-01h  1
  77  3.1021348e+03 1.80e+01 2.17e+01  -3.1 7.84e+00    -  4.37e-01 9.60e-01f  1
  78  2.8988881e+03 1.13e+01 1.49e+01  -3.3 1.47e+01    -  2.96e-01 4.29e-01h  1
  79  2.4753406e+03 4.22e+00 9.06e+00  -3.3 6.68e+00    -  6.70e-02 9.33e-01h  1
iter    objective    inf_pr   inf_du lg(mu)  ||d||  lg(rg) alpha_du alpha_pr  ls
  80  2.5328176e+03 2.85e+00 4.94e+00  -3.3 7.65e+00    -  7.44e-02 7.43e-01h  1
  81  2.4775913e+03 1.91e+00 1.57e+00  -3.3 4.56e+00    -  1.01e-01 1.00e+00h  1
  82  2.4920928e+03 1.60e-02 1.03e+00  -3.3 1.10e+00    -  1.00e+00 1.00e+00h  1
  83  2.1560311e+03 1.57e+00 6.06e+00  -3.7 3.28e+00    -  1.00e+00 1.00e+00f  1
  84  2.1015023e+03 2.49e+00 6.85e+00  -3.7 7.32e+00    -  5.29e-01 2.78e-01h  2
  85  2.0513706e+03 7.97e-01 3.00e+00  -3.7 3.80e+00    -  8.96e-01 9.16e-01h  1
  86  2.0488231e+03 7.57e-01 2.30e+00  -3.7 5.26e+00    -  3.85e-01 5.85e-01H  1
  87  2.2999559e+03 2.43e+00 3.56e+00  -3.4 4.20e+00    -  5.26e-01 1.00e+00h  1
  88  2.2365842e+03 2.94e+00 1.60e+00  -3.6 5.98e+00    -  2.83e-01 4.06e-01h  1
  89  2.0291125e+03 2.46e+00 3.07e+00  -3.6 2.74e+00    -  1.41e-01 1.00e+00h  1
iter    objective    inf_pr   inf_du lg(mu)  ||d||  lg(rg) alpha_du alpha_pr  ls
  90  2.7145520e+03 7.21e+00 7.30e+00  -3.3 8.15e+00    -  5.90e-01 9.00e-01h  1
  91  2.3417008e+03 4.36e+00 2.51e+00  -3.5 1.08e+01    -  4.25e-01 7.27e-01h  1
  92  2.2520771e+03 5.27e+00 2.27e+00  -3.5 1.72e+01    -  2.25e-02 2.73e-01h  1
  93  2.2040996e+03 1.15e+00 1.88e+00  -3.5 3.90e+00    -  3.37e-01 1.00e+00h  1
  94  2.1925289e+03 4.30e-01 1.43e+00  -3.5 2.73e+00    -  9.08e-01 1.00e+00h  1
  95  2.1835425e+03 6.14e-02 5.68e-01  -3.5 9.77e-01    -  7.04e-01 1.00e+00h  1
  96  1.9848365e+03 1.41e+00 2.33e+00  -3.8 3.32e+00    -  1.00e+00 8.99e-01h  1
  97  2.0295886e+03 1.92e+00 2.07e+00  -3.5 7.74e+00    -  8.19e-01 2.50e-01h  3
  98  1.9697873e+03 5.98e-01 1.04e+00  -3.7 3.66e+00    -  9.40e-01 1.00e+00h  1
  99  1.9328313e+03 7.19e-01 1.55e+00  -3.7 2.20e+00    -  9.05e-01 1.00e+00H  1
iter    objective    inf_pr   inf_du lg(mu)  ||d||  lg(rg) alpha_du alpha_pr  ls
 100  1.8655397e+03 1.97e-01 1.02e+00  -3.8 1.79e+00    -  8.76e-01 1.00e+00h  1
 101  1.8474136e+03 1.91e-01 7.21e-01  -3.9 3.00e+00    -  4.81e-01 3.22e-01h  2
 102  1.7546093e+03 8.10e-01 6.60e-01  -4.0 2.17e+00    -  1.00e+00 9.75e-01h  1
 103  1.7341485e+03 1.03e+00 1.18e+00  -4.0 1.05e+01    -  4.37e-01 2.68e-01h  2
 104  1.8342899e+03 2.40e+00 1.91e+00  -3.8 5.27e+00    -  7.27e-01 7.62e-01h  1
 105  1.7825336e+03 1.68e+00 1.69e+00  -3.9 4.05e+00    -  3.91e-01 7.38e-01h  1
 106  1.7478764e+03 1.07e+00 9.22e-01  -3.9 3.11e+00    -  4.39e-01 7.58e-01h  1
 107  1.7495850e+03 2.69e-01 6.88e-01  -3.9 2.28e+00    -  4.84e-01 8.67e-01h  1
 108  1.7122105e+03 2.65e-01 7.60e-01  -4.0 1.59e+00    -  1.00e+00 9.91e-01h  1
 109  1.8639249e+03 1.60e+00 1.39e+00  -3.7 3.64e+00    -  5.81e-01 1.00e+00h  1
iter    objective    inf_pr   inf_du lg(mu)  ||d||  lg(rg) alpha_du alpha_pr  ls
 110  1.8015593e+03 8.32e-01 1.66e+00  -3.9 3.78e+00    -  6.64e-01 8.53e-01h  1
 111  1.7439163e+03 2.20e+00 1.93e+00  -3.9 3.94e+00    -  3.12e-01 9.63e-01h  1
 112  1.7450597e+03 3.26e-01 1.30e+00  -3.9 3.49e+00    -  5.18e-01 8.98e-01h  1
 113  1.7406541e+03 1.28e-01 4.66e-01  -3.9 1.60e+00    -  1.00e+00 1.00e+00h  1
 114  1.7361712e+03 1.03e-02 3.76e-01  -3.9 5.15e-01    -  1.00e+00 1.00e+00h  1
 115  1.6628577e+03 4.59e-01 6.93e-01  -4.2 1.85e+00    -  1.00e+00 9.55e-01h  1
 116  1.7579151e+03 5.60e-02 1.47e+00  -4.0 3.15e+00    -  1.00e+00 1.00e+00H  1
 117  1.7015169e+03 5.31e-01 7.54e-01  -4.0 3.34e+00    -  4.81e-01 7.35e-01h  1
 118  1.6923691e+03 3.00e-01 1.16e+00  -4.0 2.03e+00    -  5.23e-02 9.68e-01h  1
 119  1.6852851e+03 2.21e-02 4.37e-01  -4.0 1.39e+00    -  1.00e+00 1.00e+00h  1
iter    objective    inf_pr   inf_du lg(mu)  ||d||  lg(rg) alpha_du alpha_pr  ls
 120  1.6298640e+03 3.43e-01 3.75e-01  -4.3 1.26e+00    -  1.00e+00 9.22e-01h  1
 121  1.6568645e+03 4.47e-01 8.07e-01  -4.0 5.52e+00    -  5.87e-01 2.35e-01h  2
 122  1.6450832e+03 5.62e-02 4.84e-01  -4.2 1.38e+00    -  9.22e-01 1.00e+00h  1
 123  1.6109626e+03 2.00e-01 3.95e-01  -4.5 1.50e+00    -  1.00e+00 7.99e-01h  1
 124  1.6286220e+03 8.28e-02 1.73e+00  -4.5 3.87e+00    -  9.98e-01 8.62e-01H  1
 125  1.5924756e+03 8.61e-02 9.45e-01  -4.9 1.81e+00    -  2.63e-01 4.78e-01h  1
 126  1.5852448e+03 6.87e-02 6.96e-01  -4.6 2.18e+00    -  4.35e-01 2.78e-01h  1
 127  1.5728201e+03 8.69e-02 2.13e-01 -10.6 2.09e+00    -  3.31e-01 2.98e-01h  1
 128  1.5801961e+03 1.86e-01 7.98e-01  -4.5 3.31e+00    -  2.93e-01 3.98e-01h  1
 129  1.5714605e+03 1.67e-01 5.14e-01  -4.8 1.89e+00    -  7.90e-01 4.37e-01h  1
iter    objective    inf_pr   inf_du lg(mu)  ||d||  lg(rg) alpha_du alpha_pr  ls
 130  1.5657572e+03 2.33e-01 5.60e-01  -4.9 5.82e+00    -  2.85e-01 2.47e-01h  1
 131  1.5609037e+03 1.57e-01 4.38e-01  -4.9 1.55e+00    -  3.50e-01 4.34e-01h  1
 132  1.5552963e+03 1.43e-01 2.68e-01  -5.9 1.84e+00    -  2.71e-01 2.57e-01h  1
 133  1.5535953e+03 1.87e-01 3.55e-01  -5.0 5.18e+00    -  2.51e-01 1.60e-01h  1
 134  1.5521396e+03 1.56e-01 3.28e-01  -5.0 2.85e+00    -  2.58e-01 2.04e-01h  1
 135  1.5538576e+03 8.91e-02 3.17e-01  -4.7 1.53e+00    -  4.03e-01 5.72e-01h  1
 136  1.5521493e+03 8.29e-02 3.81e-01  -4.9 3.05e+00    -  4.12e-01 1.91e-01h  2
 137  1.5481385e+03 8.28e-02 4.10e-01  -5.4 2.54e+00    -  5.06e-01 2.62e-01h  1
 138  1.5448271e+03 1.58e-01 5.55e-01  -5.5 5.67e+00    -  2.23e-01 2.62e-01h  1
 139  1.5420523e+03 1.89e-01 6.71e-01  -6.1 6.57e+00    -  1.53e-01 1.37e-01h  1
iter    objective    inf_pr   inf_du lg(mu)  ||d||  lg(rg) alpha_du alpha_pr  ls
 140  1.5400131e+03 1.95e-01 7.46e-01  -5.2 7.17e+00    -  3.37e-01 9.72e-02h  1
 141  1.5401192e+03 2.18e-01 9.08e-01  -4.8 1.26e+01    -  1.98e-01 9.91e-02h  2
 142  1.5376029e+03 2.32e-01 1.00e+00  -5.2 6.85e+00    -  2.72e-01 1.76e-01h  1
 143  1.5354473e+03 2.27e-01 1.12e+00 -11.0 9.71e+00    -  6.80e-02 7.46e-02h  1
 144  1.5353842e+03 2.26e-01 1.12e+00 -11.0 5.10e+00    -  1.40e-01 2.83e-03h  1
 145  1.5432163e+03 1.73e-01 1.03e+00  -4.4 4.41e+00    -  8.36e-02 2.46e-01f  1
 146  1.5391352e+03 1.51e-01 9.68e-01  -5.1 4.32e+00    -  5.20e-01 2.75e-01h  1
 147  1.5357995e+03 1.53e-01 1.08e+00  -5.6 8.48e+00    -  1.51e-01 1.24e-01h  1
 148  1.5351510e+03 1.48e-01 1.06e+00  -5.2 2.35e+00    -  1.56e-01 3.76e-02h  1
 149  1.5315715e+03 1.26e-01 7.82e-01  -5.4 1.36e+00    -  1.36e-01 5.84e-01f  1
iter    objective    inf_pr   inf_du lg(mu)  ||d||  lg(rg) alpha_du alpha_pr  ls
 150  1.5367695e+03 9.53e-02 8.29e-01  -4.7 1.82e+00    -  2.10e-01 4.12e-01h  1
 151  1.5345954e+03 7.37e-02 8.44e-01  -5.1 2.60e+00    -  2.36e-01 4.58e-01h  1
 152  1.5307326e+03 3.78e-02 5.82e-01  -5.2 9.76e-01    -  3.87e-01 5.04e-01h  1
 153  1.5288875e+03 4.07e-03 1.31e-01  -5.1 3.72e-01    -  1.00e+00 9.65e-01h  1
 154  1.5256809e+03 4.25e-03 1.71e-01  -5.5 3.79e-01    -  1.00e+00 8.26e-01h  1
 155  1.5286560e+03 1.09e-01 1.06e+00  -5.1 8.33e-01    -  7.42e-01 1.00e+00h  1
 156  1.5275384e+03 2.27e-01 2.16e+00  -5.3 3.43e+00    -  3.79e-01 3.08e-01h  1
 157  1.5268615e+03 1.84e-01 2.39e+00  -5.3 2.81e+00    -  2.16e-01 2.47e-01h  1
 158  1.5247336e+03 3.49e-02 7.98e-01  -5.3 5.98e-01    -  9.24e-02 8.30e-01f  1
 159  1.5234531e+03 2.38e-02 5.76e-01  -5.8 5.29e-01    -  9.39e-01 3.24e-01h  1
iter    objective    inf_pr   inf_du lg(mu)  ||d||  lg(rg) alpha_du alpha_pr  ls
 160  1.5230653e+03 1.18e-02 2.68e-01  -5.4 2.51e-01    -  9.81e-01 8.00e-01h  1
 161  1.5226815e+03 1.58e-02 3.38e-01  -5.5 4.25e-01    -  6.62e-01 7.46e-01h  1
 162  1.5216214e+03 2.62e-02 5.06e-01  -5.9 4.77e-01    -  6.37e-01 4.77e-01h  1
 163  1.5211731e+03 6.90e-02 7.80e-01  -5.7 5.41e-01    -  6.89e-01 7.24e-01h  1
 164  1.5229288e+03 8.67e-02 1.17e+00  -5.3 7.03e-01    -  2.62e-01 7.85e-01h  1
 165  1.5215829e+03 3.17e-02 8.06e-01  -5.7 5.15e-01    -  4.04e-01 6.65e-01h  1
 166  1.5205448e+03 2.00e-02 5.11e-01  -6.5 2.72e-01    -  6.77e-01 3.97e-01h  1
 167  1.5200812e+03 2.30e-02 4.63e-01  -6.0 4.99e-01    -  9.43e-01 3.90e-01h  1
 168  1.5199727e+03 4.08e-02 5.59e-01  -5.8 4.47e-01    -  5.72e-01 4.23e-01h  1
 169  1.5196911e+03 1.45e-01 9.46e-01  -6.2 1.32e+00    -  2.65e-01 3.06e-01h  1
iter    objective    inf_pr   inf_du lg(mu)  ||d||  lg(rg) alpha_du alpha_pr  ls
 170  1.5195717e+03 1.41e-01 1.06e+00  -5.9 1.26e+00    -  2.55e-01 1.02e-01h  1
 171  1.5192683e+03 2.09e-01 1.38e+00  -6.2 1.88e+00    -  3.07e-01 2.01e-01h  1
 172  1.5191425e+03 2.07e-01 1.45e+00 -11.0 2.74e+00    -  1.01e-01 2.71e-02h  1
 173  1.5189490e+03 2.53e-01 1.67e+00  -6.3 4.23e+00    -  1.44e-01 7.40e-02h  2
 174  1.5203318e+03 3.54e-01 1.89e+00  -5.5 1.53e+00    -  3.86e-01 4.76e-01h  1
 175  1.5199490e+03 3.12e-01 2.26e+00  -5.8 1.80e+00    -  1.62e-01 3.66e-01h  1
 176  1.5194460e+03 2.91e-01 2.43e+00  -5.8 1.71e+00    -  1.57e-01 1.18e-01f  1
 177  1.5189891e+03 2.31e-01 2.10e+00  -5.8 1.08e+00    -  1.23e-01 2.23e-01f  1
 178  1.5185330e+03 1.34e-01 1.27e+00  -5.8 5.58e-01    -  4.03e-01 4.26e-01f  1
 179  1.5182106e+03 8.92e-02 9.27e-01  -5.9 4.93e-01    -  2.53e-01 4.73e-01f  1
iter    objective    inf_pr   inf_du lg(mu)  ||d||  lg(rg) alpha_du alpha_pr  ls
 180  1.5217184e+03 4.50e-01 2.29e+00  -5.3 1.80e+00    -  3.17e-01 8.76e-01h  1
 181  1.5211446e+03 4.57e-01 3.15e+00  -5.7 2.49e+00    -  4.28e-01 1.46e-01h  1
 182  1.5201331e+03 1.07e+00 5.54e+00  -5.7 8.22e+00    -  1.08e-01 1.68e-01f  1
 183  1.5193134e+03 1.28e+00 6.87e+00  -5.7 4.33e+01    -  7.36e-02 1.97e-02h  1
 184  1.5186713e+03 1.39e+00 7.74e+00  -5.7 7.49e+01    -  9.37e-02 1.10e-02h  1
 185  1.5176275e+03 2.76e+00 9.52e+00  -5.7 5.27e+01    -  7.01e-02 3.93e-02h  2
 186  1.5175335e+03 5.76e+00 1.07e+01  -6.2 2.98e+01    -  3.68e-02 9.34e-02h  1
 187  1.5167970e+03 5.10e+00 1.07e+01  -5.1 1.01e+01    -  9.92e-02 1.59e-01h  1
 188  1.5219880e+03 5.03e+00 1.15e+01  -4.4 1.50e+01    -  9.05e-02 1.31e-01h  1
 189  1.5194003e+03 4.57e+00 1.14e+01  -5.3 4.19e+00    -  1.22e-01 9.81e-02h  1
iter    objective    inf_pr   inf_du lg(mu)  ||d||  lg(rg) alpha_du alpha_pr  ls
 190  1.5155858e+03 4.07e+00 1.12e+01  -5.3 4.26e+00    -  1.79e-01 1.19e-01h  1
 191  1.5122435e+03 4.03e+00 1.12e+01 -11.0 2.46e+01    -  3.62e-02 2.62e-02h  1
 192  1.5050704e+03 4.51e+00 1.16e+01  -4.7 4.87e+01    -  2.37e-02 4.74e-02f  1
 193  1.5029269e+03 4.85e+00 1.16e+01  -4.1 2.62e+01    -  4.45e-02 4.84e-02h  1
 194  1.5122153e+03 6.44e+00 1.22e+01  -3.7 3.70e+01    -  2.85e-02 5.94e-02f  1
 195  1.5028047e+03 5.73e+00 1.14e+01  -4.9 1.79e+01    -  4.08e-02 1.09e-01h  1
 196  1.5006131e+03 4.89e+00 1.04e+01  -4.2 1.53e+01    -  1.55e-01 1.54e-01f  1
 197  1.5047762e+03 4.34e+00 9.93e+00  -4.0 1.18e+01    -  1.66e-01 1.18e-01h  1
 198  1.4982724e+03 3.75e+00 9.27e+00  -4.5 1.08e+01    -  6.21e-02 1.21e-01h  1
 199  1.5303531e+03 4.19e+00 8.18e+00  -3.7 1.33e+01    -  1.50e-01 1.94e-01f  1
iter    objective    inf_pr   inf_du lg(mu)  ||d||  lg(rg) alpha_du alpha_pr  ls
 200  1.5189811e+03 3.84e+00 7.70e+00  -4.3 1.92e+01    -  1.63e-01 1.42e-01h  1
 201  1.4942050e+03 9.42e+00 1.20e+01  -4.3 1.18e+01    -  7.87e-02 4.81e-01h  1
 202  1.4746104e+03 7.97e+00 1.39e+01 -10.3 4.15e+00    -  1.26e-01 1.76e-01h  1
 203  1.4558400e+03 6.53e+00 1.31e+01  -5.1 1.58e+01    -  8.57e-02 1.69e-01f  1
 204  1.4414856e+03 4.72e+00 9.91e+00  -4.8 7.78e+00    -  1.33e-01 2.51e-01h  1
 205  1.4354339e+03 4.18e+00 1.10e+01  -4.4 1.27e+01    -  1.48e-01 2.86e-01h  1
 206  1.4411381e+03 3.54e+00 1.13e+01  -4.0 7.69e+00    -  3.11e-01 1.78e-01h  1
 207  1.4764403e+03 1.67e+01 7.92e+00  -4.0 2.45e+01    -  2.12e-01 3.40e-01h  1
 208  1.4559883e+03 1.31e+01 6.70e+00  -4.3 7.35e+00    -  2.52e-01 2.30e-01h  1
 209  1.4380712e+03 9.37e+00 4.72e+00  -4.3 8.58e+00    -  1.31e-01 3.01e-01h  1
iter    objective    inf_pr   inf_du lg(mu)  ||d||  lg(rg) alpha_du alpha_pr  ls
 210  1.4273064e+03 2.58e+00 4.65e+00  -4.3 3.01e+00    -  2.32e-01 7.25e-01h  1
 211  1.4099671e+03 2.45e-01 4.55e+00  -4.4 1.65e+00    -  7.18e-01 1.00e+00h  1
 212  1.4354805e+03 3.53e-01 5.94e+00  -4.1 1.72e+00    -  8.50e-01 1.00e+00h  1
 213  1.4337563e+03 3.77e+00 2.68e+00  -4.2 3.55e+00    -  4.51e-01 1.00e+00H  1
 214  1.4196147e+03 1.77e+00 1.95e+00  -4.2 1.28e+00    -  6.26e-01 5.57e-01h  1
 215  1.4663258e+03 1.11e+00 4.28e+00  -3.9 2.62e+00    -  8.22e-01 1.00e+00f  1
 216  1.4536639e+03 7.65e+00 3.25e+00  -4.1 4.20e+00    -  5.11e-01 1.00e+00h  1
 217  1.4419363e+03 3.71e+00 2.22e+00  -4.1 2.92e+00    -  4.16e-01 5.78e-01h  1
 218  1.4380896e+03 4.87e-01 1.14e+00  -4.1 1.36e+00    -  6.75e-01 8.67e-01h  1
 219  1.4396810e+03 8.34e-02 2.90e-01  -4.1 4.78e-01    -  1.00e+00 1.00e+00f  1
iter    objective    inf_pr   inf_du lg(mu)  ||d||  lg(rg) alpha_du alpha_pr  ls
 220  1.3996232e+03 1.05e-01 3.73e-01  -4.5 1.59e+00    -  1.00e+00 6.96e-01h  1
 221  1.4077199e+03 3.75e-01 5.27e-01  -4.1 3.94e+00    -  9.93e-01 3.37e-01h  2
 222  1.4021320e+03 5.87e-01 5.90e-01  -4.3 1.66e+00    -  6.68e-01 1.00e+00h  1
 223  1.3999969e+03 1.87e-01 9.58e-01  -4.3 2.64e+00    -  9.63e-01 7.90e-01h  1
 224  1.4491856e+03 1.88e-01 3.47e-01  -4.0 1.89e+00    -  7.24e-01 1.00e+00f  1
 225  1.4401426e+03 1.05e-01 1.61e+00  -4.1 2.30e+00    -  7.92e-01 1.00e+00H  1
 226  1.4135027e+03 3.31e-01 2.23e-01  -4.1 1.89e+00    -  1.18e-01 1.00e+00h  1
 227  1.4137229e+03 4.33e-02 1.64e-01  -4.1 3.88e-01    -  1.00e+00 1.00e+00h  1
 228  1.3704832e+03 5.73e-01 4.31e-01  -4.5 2.57e+00    -  1.00e+00 9.05e-01h  1
 229  1.3843028e+03 9.03e-01 5.02e-01  -4.2 4.18e+00    -  1.00e+00 5.35e-01h  1
iter    objective    inf_pr   inf_du lg(mu)  ||d||  lg(rg) alpha_du alpha_pr  ls
 230  1.3839414e+03 9.11e-01 4.43e-01  -4.3 1.04e+01    -  2.88e-01 1.82e-01h  2
 231  1.3871767e+03 1.15e-01 5.99e-01  -4.3 1.18e+00    -  1.00e+00 1.00e+00h  1
 232  1.3732050e+03 2.25e-02 2.66e-01  -4.4 9.55e-01    -  1.00e+00 9.45e-01h  1
 233  1.3602926e+03 4.23e-02 1.34e-01  -4.7 1.24e+00    -  1.00e+00 4.42e-01h  1
 234  1.3600700e+03 4.38e-02 1.12e-01  -4.4 3.03e+00    -  1.00e+00 1.69e-01h  3
 235  1.3429671e+03 1.38e-01 2.77e-01  -4.7 1.79e+00    -  1.00e+00 8.82e-01h  1
 236  1.3521069e+03 2.42e-01 5.49e-01  -4.3 4.84e+00    -  4.77e-01 3.01e-01h  2
 237  1.3468424e+03 4.26e-03 4.85e-01  -4.6 1.54e+00    -  7.39e-01 1.00e+00H  1
 238  1.3436973e+03 1.04e-01 3.52e-01  -4.6 1.24e+00    -  8.20e-01 5.96e-01h  1
 239  1.3374532e+03 6.09e-02 1.45e-01  -4.8 1.06e+00    -  1.00e+00 3.66e-01h  1
iter    objective    inf_pr   inf_du lg(mu)  ||d||  lg(rg) alpha_du alpha_pr  ls
 240  1.3273745e+03 5.29e-02 2.15e-01  -5.5 2.09e+00    -  6.71e-01 4.74e-01h  1
 241  1.3269513e+03 7.76e-02 2.67e-01  -4.9 2.91e+00    -  6.04e-01 3.25e-01h  1
 242  1.3250404e+03 7.29e-02 2.37e-01 -11.0 2.41e+00    -  3.58e-01 1.02e-01h  1
 243  1.3249799e+03 5.49e-02 4.66e-01  -4.9 2.71e+00    -  4.16e-01 4.25e-01H  1
 244  1.3225735e+03 8.77e-02 2.95e-01  -5.0 1.15e+00    -  4.49e-01 7.49e-01h  1
 245  1.3176985e+03 2.00e-02 1.65e-01  -5.2 6.82e-01    -  7.53e-01 7.86e-01h  1
 246  1.3174082e+03 1.08e-02 2.41e-01  -5.2 5.71e-01    -  8.80e-01 6.79e-01h  1
 247  1.3146353e+03 1.26e-02 1.17e-01  -5.3 4.10e-01    -  1.00e+00 1.00e+00h  1
 248  1.3145780e+03 9.99e-03 2.34e-01  -5.4 7.89e-01    -  6.96e-01 6.66e-01H  1
 249  1.3124845e+03 3.89e-03 1.74e-01  -5.5 4.74e-01    -  1.00e+00 1.00e+00h  1
iter    objective    inf_pr   inf_du lg(mu)  ||d||  lg(rg) alpha_du alpha_pr  ls
 250  1.3113899e+03 4.76e-03 6.85e-02  -6.4 4.55e-01    -  8.81e-01 3.76e-01h  1
 251  1.3111310e+03 7.71e-03 8.00e-02  -5.7 8.74e-01    -  1.00e+00 3.06e-01h  1
 252  1.3113214e+03 2.47e-02 7.53e-02  -5.5 1.46e+00    -  4.86e-01 4.26e-01h  1
 253  1.3110532e+03 4.06e-02 6.89e-02  -5.7 4.44e+00    -  2.68e-01 1.30e-01h  1
 254  1.3113619e+03 4.61e-02 1.47e-01  -5.4 2.59e+00    -  3.15e-01 1.85e-01f  2
 255  1.3111140e+03 4.41e-02 1.72e-01  -5.6 8.95e-01    -  8.34e-01 1.00e+00h  1
 256  1.3117721e+03 2.60e-02 1.50e-01  -5.4 9.50e-01    -  3.98e-01 4.31e-01h  1
 257  1.3112240e+03 1.17e-02 8.71e-02  -5.6 3.02e-01    -  6.78e-01 5.62e-01h  1
 258  1.3108975e+03 1.56e-04 1.20e-01  -5.6 1.77e-01    -  1.00e+00 1.00e+00f  1
 259  1.3096849e+03 4.31e-03 3.90e-02  -6.4 3.78e-01    -  1.00e+00 6.34e-01h  1
iter    objective    inf_pr   inf_du lg(mu)  ||d||  lg(rg) alpha_du alpha_pr  ls
 260  1.3094334e+03 1.68e-02 1.27e-01  -6.1 2.22e+00    -  1.00e+00 3.22e-01h  1
 261  1.3113943e+03 8.13e-03 2.74e-01  -5.5 5.83e-01    -  6.31e-01 1.00e+00h  1
 262  1.3109860e+03 8.22e-03 1.23e-01  -5.7 1.36e+00    -  8.04e-01 2.17e-01h  1
 263  1.3098212e+03 4.66e-03 6.98e-02  -5.7 2.32e-01    -  5.85e-01 1.00e+00f  1
 264  1.3098586e+03 4.23e-04 1.21e-01  -5.7 2.03e-01    -  6.17e-01 9.93e-01h  1
 265  1.3097961e+03 1.23e-03 3.15e-02  -5.7 1.77e-01    -  1.00e+00 1.00e+00f  1
 266  1.3088404e+03 2.47e-03 3.06e-02  -6.5 2.45e-01    -  1.00e+00 6.67e-01h  1
 267  1.3084953e+03 9.45e-03 4.70e-02  -6.5 9.52e-01    -  1.00e+00 5.18e-01h  1
 268  1.3089176e+03 6.54e-02 1.29e-01  -5.8 3.90e+00    -  6.07e-01 3.63e-01h  1
 269  1.3088628e+03 6.25e-02 8.59e-02  -6.1 3.46e+00    -  1.78e-01 9.44e-02h  3
iter    objective    inf_pr   inf_du lg(mu)  ||d||  lg(rg) alpha_du alpha_pr  ls
 270  1.3088191e+03 2.53e-02 1.30e-01  -6.1 5.09e-01    -  1.71e-01 5.95e-01h  1
 271  1.3086795e+03 1.10e-02 6.91e-02  -6.1 5.60e-01    -  9.19e-01 8.37e-01f  1
 272  1.3086639e+03 8.22e-03 4.08e-02  -6.1 3.44e-01    -  7.80e-01 2.52e-01f  1
 273  1.3086473e+03 1.28e-03 1.84e-02  -6.1 2.10e-01    -  3.87e-01 1.00e+00f  1
 274  1.3083636e+03 6.02e-03 3.47e-02  -6.7 8.79e-01    -  1.00e+00 4.69e-01h  1
 275  1.3081530e+03 1.48e-02 3.77e-02  -6.7 1.24e+00    -  1.00e+00 5.28e-01h  1
 276  1.3081635e+03 1.55e-02 6.03e-02  -6.2 2.69e+00    -  6.72e-01 1.19e-01h  2
 277  1.3083653e+03 6.72e-05 1.23e-01  -6.4 4.57e-01    -  6.86e-01 1.00e+00H  1
 278  1.3081371e+03 7.90e-04 6.04e-02  -6.6 3.76e-01    -  7.68e-01 5.16e-01h  1
 279  1.3080590e+03 6.91e-04 4.28e-02  -6.8 3.31e-01    -  5.12e-01 2.63e-01h  1
iter    objective    inf_pr   inf_du lg(mu)  ||d||  lg(rg) alpha_du alpha_pr  ls
 280  1.3079807e+03 3.35e-04 2.13e-02  -6.8 9.90e-02    -  7.60e-01 5.63e-01h  1
 281  1.3078815e+03 2.39e-04 1.71e-02  -7.2 1.05e-01    -  1.00e+00 6.86e-01h  1
 282  1.3078380e+03 1.64e-04 1.48e-02  -7.2 9.37e-02    -  1.00e+00 8.48e-01h  1
 283  1.3078171e+03 3.82e-04 1.75e-02  -7.7 3.81e-01    -  7.30e-01 3.49e-01h  1
 284  1.3078032e+03 7.19e-04 1.98e-02  -7.9 6.11e-01    -  7.96e-01 2.64e-01h  1
 285  1.3077855e+03 6.55e-04 1.85e-02  -8.3 5.28e-01    -  6.93e-01 3.02e-01h  1
 286  1.3077803e+03 6.09e-04 2.18e-02  -7.8 9.35e-01    -  3.00e-01 6.07e-02h  1
 287  1.3077734e+03 8.07e-04 2.15e-02  -7.9 5.02e-01    -  9.42e-01 2.46e-01h  1
 288  1.3077827e+03 1.05e-03 4.53e-02  -7.7 4.88e-01    -  4.03e-01 4.97e-01H  1
 289  1.3077750e+03 9.01e-04 3.67e-02  -7.9 1.91e-01    -  4.24e-01 1.45e-01h  1
iter    objective    inf_pr   inf_du lg(mu)  ||d||  lg(rg) alpha_du alpha_pr  ls
 290  1.3078397e+03 1.41e-04 3.15e-02  -7.0 1.15e-01    -  3.96e-01 1.00e+00f  1
 291  1.3077964e+03 4.23e-05 1.04e-02  -7.4 6.15e-02    -  1.00e+00 6.95e-01h  1
 292  1.3077668e+03 2.50e-05 6.59e-03  -8.3 4.65e-02    -  1.00e+00 5.78e-01f  1
 293  1.3077589e+03 2.44e-05 5.91e-03  -7.8 1.18e-01    -  1.00e+00 4.86e-01h  1
 294  1.3077535e+03 1.05e-04 8.86e-03  -8.1 4.26e-01    -  8.08e-01 3.04e-01h  1
 295  1.3077518e+03 2.16e-04 1.51e-02  -8.0 4.28e-01    -  1.00e+00 3.62e-01h  1
 296  1.3077489e+03 2.42e-04 1.63e-02  -8.1 3.43e-01    -  1.00e+00 3.04e-01h  1
 297  1.3077449e+03 1.92e-04 1.31e-02  -8.2 1.58e-01    -  3.86e-01 2.43e-01h  1
 298  1.3077390e+03 1.07e-04 5.54e-03 -11.0 3.61e-02    -  5.59e-01 4.44e-01h  1
 299  1.3077428e+03 3.07e-05 1.01e-02  -8.0 3.69e-02    -  3.69e-01 1.00e+00h  1
iter    objective    inf_pr   inf_du lg(mu)  ||d||  lg(rg) alpha_du alpha_pr  ls
 300  1.3077389e+03 1.65e-05 6.61e-03  -8.5 6.49e-02    -  1.00e+00 4.87e-01h  1
 301  1.3077371e+03 1.02e-04 1.21e-02  -8.5 2.23e-01    -  1.00e+00 5.59e-01h  1
 302  1.3077359e+03 1.02e-04 1.15e-02  -8.5 3.04e-01    -  1.00e+00 1.73e-01h  1
 303  1.3077344e+03 1.46e-04 1.45e-02  -9.2 4.59e-01    -  6.35e-01 2.21e-01h  1
 304  1.3077326e+03 1.29e-04 6.30e-03  -9.1 2.38e-01    -  7.22e-02 2.61e-01h  1
 305  1.3077374e+03 1.92e-07 2.35e-04  -8.3 1.30e-01    -  4.14e-01 1.00e+00H  1
 306  1.3077312e+03 6.78e-06 9.17e-03  -9.3 5.60e-02    -  1.00e+00 6.40e-01h  1
 307  1.3077308e+03 3.66e-06 3.99e-03  -8.5 2.60e-02    -  1.00e+00 7.21e-01h  1
 308  1.3077301e+03 7.56e-06 1.56e-03  -8.6 4.03e-02    -  1.00e+00 9.56e-01h  1
 309  1.3077305e+03 4.22e-04 1.15e-02  -8.3 1.51e+00    -  1.00e+00 1.89e-01h  2
iter    objective    inf_pr   inf_du lg(mu)  ||d||  lg(rg) alpha_du alpha_pr  ls
 310  1.3077303e+03 5.93e-04 7.43e-03  -8.4 2.89e+00    -  7.29e-01 6.98e-02h  3
 311  1.3077301e+03 6.93e-04 9.38e-03  -8.4 2.10e+00    -  7.61e-01 8.53e-02h  3
 312  1.3077295e+03 7.33e-04 9.72e-03  -8.4 1.83e+00    -  4.52e-01 8.14e-02h  3
 313  1.3078113e+03 4.61e-06 7.62e-02  -8.1 5.07e-01    -  9.55e-01 1.00e+00H  1
 314  1.3077409e+03 6.46e-04 2.06e-02  -8.2 6.19e-01    -  5.95e-01 6.66e-01h  1
 315  1.3077373e+03 6.35e-04 3.21e-02  -8.2 6.79e-01    -  4.46e-01 3.06e-01f  1
 316  1.3077339e+03 3.65e-04 1.76e-02  -8.2 1.77e-01    -  4.58e-02 5.00e-01f  2
 317  1.3077320e+03 2.36e-04 6.12e-03  -8.2 5.02e-02    -  9.92e-01 3.52e-01h  1
 318  1.3077316e+03 1.72e-04 1.97e+00  -8.2 4.87e-02    -  3.40e-05 2.75e-01f  1
 319  1.3077316e+03 1.62e-04 8.92e+01  -8.2 7.08e-02    -  1.88e-08 5.58e-02f  2
iter    objective    inf_pr   inf_du lg(mu)  ||d||  lg(rg) alpha_du alpha_pr  ls
 320  1.3077320e+03 6.07e-05 2.47e+01  -8.2 1.45e-01    -  6.08e-01 7.23e-01h  1
 321  1.3077317e+03 9.48e-06 7.10e+03  -8.2 4.20e-02    -  4.83e-08 8.61e-01f  1
 322  1.3077311e+03 4.74e-06 2.44e+03  -8.2 4.03e-02    -  9.06e-01 6.57e-01f  1
 323  1.3077311e+03 4.87e-07 3.72e+04  -8.2 1.19e-02    -  3.89e-08 1.00e+00f  1
 324  1.3077310e+03 9.49e-08 1.75e-05  -8.2 1.24e-02    -  1.00e+00 1.00e+00h  1

Number of Iterations....: 324

                                   (scaled)                 (unscaled)
Objective...............:   4.8132949304948980e+00    1.3077310142733486e+03
Dual infeasibility......:   1.7477821685704814e-05    4.7485744818021002e-03
Constraint violation....:   4.1169393454489270e-09    9.4915748150015133e-08
Variable bound violation:   0.0000000000000000e+00    0.0000000000000000e+00
Complementarity.........:   1.2461855013886622e-08    3.3857792909776572e-06
Overall NLP error.......:   1.7477821685704814e-05    4.7485744818021002e-03


Number of objective function evaluations             = 437
Number of objective gradient evaluations             = 325
Number of equality constraint evaluations            = 437
Number of inequality constraint evaluations          = 437
Number of equality constraint Jacobian evaluations   = 325
Number of inequality constraint Jacobian evaluations = 325
Number of Lagrangian Hessian evaluations             = 0
Total seconds in IPOPT                               = 388.097

EXIT: Optimal Solution Found.
      solver  :   t_proc      (avg)   t_wall      (avg)    n_eval
       nlp_f  |   2.67 s (  6.12ms)   2.68 s (  6.12ms)       437
       nlp_g  |   3.04 s (  6.97ms)   3.04 s (  6.96ms)       437
  nlp_grad_f  |   5.53 s ( 16.92ms)   5.54 s ( 16.95ms)       327
   nlp_jac_g  |  32.84 s (100.75ms)  32.84 s (100.73ms)       326
       total  | 388.12 s (388.12 s) 388.12 s (388.12 s)         1
 
...Exit NLP solver. Time elapsed 390.61 s
 
 
Retrieving solution...
 
Saving results as: C:\GBW_MyPrograms\PredSim_2D_BCN\PredSimResults\BCN_CP2\BCN_CP2_job23.mat
 
 
Start PostProcessing...
 
 
...PostProcessing done. Time elapsed 0.87 s
 
 
Total time elapsed 401.68 s
 
Diary saved as C:\GBW_MyPrograms\PredSim_2D_BCN\PredSimResults\BCN_CP2\BCN_CP2_job23_log.txt
 
 
